11
 0  1  2  0  0  3  0  0  0  0  0
 1  0  0  0  3  1  0  0  0  0  0
 2  0  0  4  0  0  0  0  0  0  7
 0  0  4  0  0  2  0  3  0  0  3
 0  3  0  0  0  0  2  2  0  0  0
 3  1  0  2  0  0  0  7  0  0  0
 0  0  0  0  2  0  0  0  0  2  0
 0  0  0  3  2  7  0  0 11 10  0
 0  0  0  0  0  0  0 11  0  2  8
 0  0  0  0  0  0  2 10  2  0  0
 0  0  7  3  0  0  0  0  8  0  0
0 2
1 0
1 6
2 5
5 1
1 3
7 0
5 4
7 6
8 3
4 8